p ds 50 92
1 34
1 35
1 13
1 23
1 27
1 28
2 5
2 41
2 44
2 47
2 20
3 50
3 42
3 8
4 17
4 34
4 37
4 22
5 38
5 44
5 49
5 24
5 28
6 17
6 35
6 22
7 26
7 36
7 39
7 32
8 12
8 19
8 30
8 31
9 14
9 23
10 43
10 12
10 49
10 25
10 31
11 25
11 15
11 16
12 43
12 21
12 24
12 30
13 24
14 21
14 46
14 23
15 25
15 42
16 49
16 36
17 34
17 35
17 22
18 26
18 27
19 40
20 36
20 48
20 49
20 32
21 46
23 33
23 46
23 24
25 40
25 49
25 31
26 45
26 38
27 35
27 38
27 28
28 38
29 50
29 30
30 37
30 50
31 43
34 37
34 46
37 46
37 50
38 41
41 45
42 50
45 48
